NAME : sim81.99979.tour
COMMENT : Length = 99979
COMMENT : Found by LKH [Keld Helsgaun] Sat Sep 15 01:46:28 2018
TYPE : TOUR
DIMENSION : 81
TOUR_SECTION
1
59
43
18
61
79
76
48
24
39
69
26
50
2
31
40
13
12
42
77
33
23
64
52
36
70
8
15
55
51
29
53
34
44
30
57
16
81
68
72
58
14
28
32
4
10
37
66
73
47
3
20
49
54
80
65
5
9
56
45
35
21
67
19
60
11
7
74
27
25
75
41
71
22
78
46
17
63
6
38
62
-1
EOF
